NAME : lr203.949394.tour
COMMENT : Cost = 0_949394
COMMENT : Found by LKH [Keld Helsgaun] Fri Sep 15 17:42:01 2017
TYPE : TOUR
DIMENSION : 105
TOUR_SECTION
1
95
96
93
103
43
44
16
40
68
24
73
74
22
41
54
88
58
42
23
76
57
75
5
56
26
55
25
81
78
29
105
51
34
82
66
72
52
2
70
28
90
97
60
86
92
45
15
39
87
17
62
100
7
6
85
9
49
48
50
20
11
64
91
33
67
21
71
8
83
18
94
99
101
38
98
3
59
104
53
19
61
84
46
47
37
65
12
63
89
32
31
77
4
80
79
10
102
36
35
30
69
13
27
14
-1
EOF
